BiVO4_2x2x2
   1.00000000000000
    10.3909678405458017   -0.0694606128890070    0.0000000000000000
     0.0000000000000000   10.1869999999999994    0.0000000000000000
     0.0000000000000000    0.0000000000000000   23.4089999999999989
   Bi    V    O
   32   32  128
Direct
 -0.0022878960535291  0.1273193352078498  0.3123713119459594
  0.2480296110284138  0.3814229256471193  0.0676744812743391
  0.0074448277449614  0.3802139914939925  0.1849263339579120
  0.2500507743303521  0.1250543806443752  0.4371102416245709
  0.5024162083790509  0.1227158069615444  0.3123894681935707
  0.7502035706787493  0.3734002602757011  0.0629605931047742
  0.5029449923465438  0.3745407542477635  0.1874100959202369
  0.7501078249095084  0.1250119061407525  0.4373267490159711
 -0.0024393529410848  0.6293480567765127  0.3100423214617242
  0.2519990996043603  0.8686041603549811  0.0676739952799827
 -0.0029660277553849  0.8755199074532694  0.1873902467447334
  0.2500701890178201  0.6250269842104698  0.4364264032256438
  0.5024013947088098  0.6206715203713428  0.3100683404574636
  0.7498522238596378  0.8766151462909961  0.0629073597680921
  0.4926279458803032  0.8698334520568667  0.1849115947850566
  0.7500936902514682  0.6250110180595562  0.4369866019027868
  0.0007749149638324  0.1247539142352981  0.8134577859412674
  0.2501098596063556  0.3753365580686150  0.5623920566021096
  0.0001450981975375  0.3747400622592612  0.6874035580358345
  0.2500088757552212  0.1249920808840723  0.9394956371647262
  0.4992816675748767  0.1251911517570176  0.8134353111030670
  0.7501313537964061  0.3751519497844695  0.5627673488303029
  0.5000124027581367  0.3749792583253503  0.6873464274059807
  0.7500020001035809  0.1249954280833993  0.9372318348453305
  0.0002839355559940  0.6250342160793035  0.8132761627391664
  0.2500000485349999  0.8748039275824592  0.5623856896065063
  0.0001436388005246  0.8749055167197834  0.6873540383417558
  0.2500405791557503  0.6249763338566278  0.9377325883662004
  0.4997882574781247  0.6248866512809308  0.8132833332111519
  0.7500054858041585  0.8749043302357336  0.5627804068046111
  0.5000026416871655  0.8751159408540977  0.6873872451947939
  0.7500264201838851  0.6249415709869135  0.9373806010256912
  0.2499870247418036  0.6250039790881599  0.1982846824691366
  0.0004766220558366  0.1270985040682655  0.0608732256613606
  0.2532059669856145  0.3761707900888269  0.3101791263643183
  0.0012803560086990  0.3756498505892768  0.4385026246318250
  0.2500430144282050  0.1250014670368735  0.1897066533362925
  0.4995638316611061  0.1229069391701262  0.0608632065204032
  0.7514847926724187  0.3745831635160540  0.3136196499503932
  0.4993594851334924  0.3746029957137839  0.4385143168593054
  0.7500376607008694  0.1250074960926165  0.1867157686084140
 -0.0008179559734387  0.6266437449885026  0.0618212719356160
  0.2468794503398328  0.8738921478404091  0.3102036644296786
  0.0007817683196418  0.8754538566511387  0.4384801379348465
  0.5008239172603095  0.6233484708429030  0.0618230609757190
  0.7485882927753105  0.8754547660255053  0.3136407670939865
  0.4988515260740009  0.8744229739859871  0.4385185099330342
  0.7499978264920909  0.6249893265616848  0.1877068336063625
  0.0005645606099396  0.1244731097817137  0.5616418301702645
  0.2499107614972018  0.3750134167692484  0.8117573840263804
 -0.0001019690682244  0.3749376022077766  0.9375622980185557
  0.2500779749008216  0.1249794752709530  0.6879104370042428
  0.4995566872326880  0.1255559133798186  0.5616212780586669
  0.7501782949333344  0.3749210455193705  0.8114221194722825
  0.5002144356898185  0.3751894527505034  0.9378349851980811
  0.7500675477580018  0.1249768972259054  0.6884179132384913
  0.0004165176863506  0.6244428524497655  0.5616477646510291
  0.2501448639879474  0.8749287672917416  0.8117560508068721
 -0.0001437377021671  0.8747779217120866  0.9378203950423005
  0.2500718274348414  0.6249839680860457  0.6880142562168656
  0.4996905196695025  0.6256066834742167  0.5616231987854243
  0.7498678918745922  0.8750382337703875  0.8114218993509491
  0.5001662810067961  0.8750381680541177  0.9375494625912270
  0.7500632410055366  0.6249737563386495  0.6883970770158231
  0.0729019768208806  0.2549794169517376  0.1028040194253705
  0.1256630427121216  0.2054468409633703  0.2288486765917166
  0.3272146471494022 -0.0037550491569214  0.3510557563046242
  0.3735531372448378  0.4513699499566176  0.4780145258571246
  0.4289026411106847  0.4955478588097434  0.1026926159476863
  0.3744476775323226  0.0446017051457837  0.2288429372574772
  0.1729094038214765  0.2538814410880149  0.3510580691677919
  0.1270545130660035  0.2984934578574718  0.4780622336387588
  0.4250524699939413  0.2485065399818722  0.3972838621437241
  0.3767217378382614  0.2959414694392798  0.2716511246561412
  0.1783094260674976  0.4937960995159894  0.1483934312930933
  0.1250208970428194  0.0509150792302722  0.0218513271675538
  0.0750943842560355  0.0015354874933548  0.3972509816251100
  0.1427262799313824  0.4677733641950284  0.2667765201212050
  0.3254197677407319  0.2476328582352722  0.1472711621262940
  0.3749804913465704  0.1990898415888754  0.0218691989528485
  0.5759570474914725  0.2481407878200252  0.1011710374741710
  0.6273798377921905  0.1966008454220721  0.2291318660293654
  0.8231177812123882  0.0032064511993959  0.3541258639125124
  0.8758666116242686  0.4509633827194917  0.4785300483504746
  0.9247567606510583  0.5003514258992359  0.1030754636040597
  0.8728077808263318  0.0535180172138075  0.2291127475743039
  0.6770334283032170  0.2468636366283785  0.3541363730984438
  0.6246443668520550  0.2990922077499603  0.4786001620840866
  0.9261866184166894  0.2485011787679954  0.3981150235104365
  0.8809729894736514  0.3046506612616627  0.2754222886250675
  0.6749288127637413  0.4981502797343610  0.1469067489481511
  0.6256054299737764  0.0482771045104737  0.0206831738330890
  0.5740029789396436  0.0014690068308754  0.3980981413413707
  0.6242986350098488  0.4470183037821013  0.2731745835080178
  0.8233767743151973  0.2529371126099982  0.1463483559685849
  0.8744666420179793  0.2017099682350838  0.0206823981089641
  0.0710850511961642  0.7545014150236147  0.1026548146803075
  0.1034423914847808  0.7053310131000774  0.2267499884146479
  0.3288352807048067  0.4996639013672726  0.3523407242011160
  0.3731134998218636  0.9516802113933638  0.4780710214964526
  0.4271392428201052  0.9950529973137984  0.1028060290522982
  0.3965118349428256  0.5446287545261628  0.2267866895979551
  0.1712363970013665  0.7503547398372685  0.3523323183857179
  0.1266139625821690  0.7987421722079718  0.4779766382190332
  0.4244280130021159  0.7500142745840030  0.3969840511028631
  0.3572721479324705  0.7822753797068831  0.2667769575700981
  0.1746186382474250  0.0023972567132151  0.1472721348654773
  0.1262616676742606  0.5512160759790552  0.0230348424232924
  0.0755798586741305  0.5001734305815339  0.3969921905256908
  0.1233669856749602  0.9540353833100584  0.2716377511091674
  0.3217131622672999  0.7562101813569405  0.1484020732365521
  0.3737248900038034  0.6987455496059144  0.0230390054738826
  0.5752720986701303  0.7496688725683859  0.1030442623783385
  0.6278682092520597  0.7002881114632026  0.2288463938768086
  0.8219130575241838  0.5021727410140180  0.3547324875168276
  0.8755331896365032  0.9509677515884308  0.4785907843058969
  0.9240521679194824  0.0018638456885464  0.1011710721847333
  0.8720226487042670  0.5496061300446632  0.2288939601222124
  0.6781668730285006  0.7478264928875608  0.3547286913665936
  0.6242631378623810  0.7990455161659904  0.4785257671722835
  0.9256755470517326  0.7496755910541492  0.3977686599689224
  0.8756634872917198  0.8030049994513440  0.2731397069066414
  0.6766635553082253  0.9970680853704637  0.1463715322975512
  0.6263403916316742  0.5496194244393230  0.0216058022391957
  0.5743977918658251  0.5004044756026820  0.3977963075685916
  0.6191340390001400  0.9453564525363466  0.2754131301157912
  0.8251027098497954  0.7518195396067099  0.1469267244219771
  0.8736515251762044  0.7003472159982382  0.0215999815969181
  0.0749859697879044  0.2503428444564727  0.6028850241415060
  0.1251121569885545  0.2005382213812137  0.7278540922882637
  0.3242453412906272  0.0008615571529767  0.8528668880392006
  0.3762786491213899  0.4512279849900130  0.9773988402678102
  0.4252376560578595  0.4995886137892737  0.6028285597970960
  0.3750413865520615  0.0493942222833309  0.7278423583096432
  0.1758372590363895  0.2491011376296659  0.8528830519770603
  0.1242195735738007  0.3007180790138997  0.9775225892430993
  0.4254078551923320  0.2480466797509664  0.8971097662289500
  0.3759491930710095  0.2998258954381958  0.7720697471835248
  0.1753847290896412  0.4984820048140373  0.6470747486662569
  0.1264399334474291  0.0492259288822937  0.5215943881121933
  0.0746593279029786  0.0019315336867907  0.8970819857725625
  0.1241232442229503  0.4503880738663094  0.7719906502846794
  0.3247730666861273  0.2516284712824681  0.6470488396364082
  0.3736632387139870  0.2008641283984545  0.5216072013272421
  0.5739010210152149  0.2519073554461291  0.6027365280626169
  0.6240689381218884  0.2007948369644675  0.7277528823814663
  0.8249672996415397  0.0012521979644658  0.8522586472692453
  0.8753213436210160  0.4512902099413630  0.9775575678922154
  0.9261587133026072  0.4980633267746307  0.6028062567598907
  0.8760316626364681  0.0491686356503143  0.7277606345570243
  0.6750884532835261  0.2487280101187028  0.8522718477080783
  0.6264650896617275  0.2998072512178039  0.9773488653406013
  0.9249892508036022  0.2487010801990183  0.8962282799105401
  0.8753197807287050  0.2987865800083686  0.7716405481172985
  0.6757836657159267  0.4988932434756208  0.6471173999735479
  0.6253450597699987  0.0491651585268099  0.5226399434778946
  0.5750750426162907  0.0012627935620917  0.8962120403485920
  0.6252053083656860  0.4511721571726425  0.7715544092432588
  0.8242881531937329  0.2511787195221949  0.6471653992854017
  0.8747942849085025  0.2008552489625685  0.5226477836047840
  0.0749016639670275  0.7504792924819197  0.6028330082775768
  0.1248483793655148  0.7006347923180284  0.7278056103465036
  0.3242138265200142  0.5015136015382123  0.8528070661376459
  0.3758993523945837  0.9492976574929214  0.9775272518219290
  0.4251700018012587  0.9996821437168389  0.6028745357861294
  0.3752594186561947  0.5492939533372292  0.7278015982877493
  0.1758299544760415  0.7484719613747879  0.8528261969452560
  0.1238289173189038  0.7987422535902874  0.9773668025774471
  0.4251163914210401  0.7475070750939051  0.8969066158621475
  0.3758829629187609  0.7995256204963622  0.7719711069279915
  0.1753499523105733  0.9983347278398857  0.6470494950550808
  0.1260277254581108  0.5490669869596803  0.5216330796664272
  0.0749246357183781  0.5024557438192708  0.8969031561889080
  0.1240856759386347  0.9501129209639472  0.7720755962283081
  0.3247344246858614  0.7514853660832888  0.6470650469969483
  0.3741051789402093  0.7010554602447053  0.5216174011007393
  0.5740041150108924  0.7519447591635248  0.6027933032718878
  0.6240776704404578  0.7009023792382088  0.7277275759282784
  0.8250856107010246  0.5010895296058463  0.8524671574975141
  0.8736479108686583  0.9501593646797870  0.9773583462611627
  0.9262633703152975  0.9980823458501072  0.6027425981821248
  0.8759996626531887  0.5490274790215781  0.7277449105371770
  0.6750017863314139  0.7488532370006644  0.8524726324283897
  0.6247573559822766  0.7986919889336985  0.9775452202501717
  0.9248169617941160  0.7487655729883017  0.8963248114232432
  0.8748040844783911  0.7987920937458026  0.7715384963840164
  0.6758677464939578  0.9987443912478411  0.6471714744928753
  0.6252854376128106  0.5491725380631816  0.5225239912740762
  0.5752244241610678  0.5011919410686528  0.8963174763533601
  0.6246925886378372  0.9511417428212179  0.7716419464194293
  0.8243589887752063  0.7510409881056298  0.6471089821467624
  0.8748533130936667  0.7008590841535102  0.5225205045196074
