BiVO4_unitcell
   1.00000000000000
     5.1954839202729008   -0.0347303064445035    0.0000000000000000
     0.0000000000000000    5.0934999999999997    0.0000000000000000
     0.0000000000000000    0.0000000000000000   11.7044999999999995
   Bi    V    O
    4    4   16
Direct
  1.5000109716083170  1.7498086604714671  1.1255608136092221
  1.0000052833743309  1.7502318817081954  1.3747744903895878
  1.5000528403677702  1.2498831419738270  1.8747612020513824
  1.4997357837491845  1.7500764675407749  1.6228437987018982
  1.0003325620135921  1.7500763361082354  1.8750989251824539
  1.5001264820110731  1.2499475126772990  1.3767941540316462
  1.1480082300217849  1.5038895183270495  1.2055866065437757
  1.2481553408809156  1.4018047584764175  1.4554551518565568
  1.6501712214020492  1.0021790592116926  1.7049343149950282
  1.7472958217373167  1.9003187293595740  1.9547166925223254
  1.8525267406305950  1.9961646917002145  1.2054851963642497
  1.7519993253063775  1.0980549580431562  1.4554898210743541
  1.3500035726628279  1.4977064740013288  1.7049452648567793
  1.2495147119645531  1.5973839778673971  1.9550904405003433
  1.8496339235882320  1.4975311459766034  1.7926496228464863
  1.7496081689567822  1.5975841874916052  1.5430769927680328
  1.3517354929879155  1.9974887824956822  1.2943429489857505
  1.2505708752256213  1.0983450761263631  1.0450479825481525
  1.1504488483221356  1.0023838821373057  1.7926349527067202
  1.2493851772756743  1.9022834856424358  1.5432838928388586
  1.6487179775504126  1.5020819762112596  1.2942179642935248
  1.7497066261873333  1.4017181683070203  1.0450410090392148
